77636 68101 
77346 68853 
77669 66933 
77637 67835 
77479 68433 
77480 68376 
77402 68458 
77331 69153 
67508 79549 
66173 79614 
67723 79497 
71473 78083 
70612 78643 
69708 79020 
68475 79438 
68314 79466 
68902 79315 
70031 78716 
69118 79304 
68032 79468 
69997 78893 
67443 79596 
72140 77654 
71215 78225 
69398 79116 
71630 78052 
72610 77244 
71701 77849 
71360 78134 
70591 78649 
69252 79191 
71110 78342 
70181 78669 
74305 75665 
72440 77473 
70649 78395 
76208 72181 
76116 72355 
75272 74232 
75627 73952 
74928 74911 
74618 75244 
73917 75974 
73806 76018 
77123 69870 
77187 69816 
77245 69719 
73438 76380 
73294 76812 
76538 71757 
76923 71062 
75714 73226 
74496 75465 
75087 74376 
75526 73996 
74974 74735 
74632 74990 
73964 75907 
76058 72708 
75660 73588 
75446 74065 
76655 71322 
76996 70540 
76269 72158 
76028 72889 
75967 73032 
77382 68558 
72752 76918 
